data/mip_solutions/furman_sahinidis/transshipment/8sp1_gurobi.sol
Elapsed time: 0.0997350215912
Nodes explored: 56
Upper bound: 9.0
Lower bound: 9.0
y[0,0]=1
y[0,1]=1
y[0,2]=1
y[1,0]=1
y[2,1]=1
y[2,3]=1
y[2,4]=1
y[3,2]=1
y[4,1]=1
q[0,0,3]=21.0
q[0,1,2]=460.5
q[0,2,2]=1053.0
q[0,2,3]=1825.5
q[1,0,1]=1008.0
q[1,0,2]=1008.0
q[1,0,3]=1659.0
q[2,1,2]=335.75
q[2,1,3]=2320.0
q[2,1,4]=348.0
q[2,1,5]=393.75
q[2,3,3]=1725.0
q[2,3,4]=258.75
q[2,3,5]=603.75
q[2,3,6]=172.5
q[2,4,7]=112.5
q[3,2,3]=1684.5
q[3,2,4]=526.5
q[4,1,1]=928.0
q[4,1,2]=595.75
q[4,1,5]=418.25
r[0,1]=448.0
r[0,2]=2240.0
r[0,3]=1846.5
r[1,2]=392.0
r[1,3]=434.0
r[2,3]=1374.25
r[2,4]=179.25
r[2,7]=112.5
r[3,4]=325.5
r[4,1]=1942.0
r[4,2]=1014.0
r[4,3]=418.25
r[4,4]=418.25
r[4,5]=418.25
